174
0 117 57 115 58 132 154 126 111 116 
62 15 85 108 105 138 165 167 52 121 
136 146 44 140 144 95 20 7 40 81 
34 129 114 38 68 36 98 157 149 112 
173 71 101 31 11 56 123 19 155 93 
137 53 109 97 160 30 166 1 162 124 
73 90 27 150 66 22 75 130 12 69 
110 142 172 21 18 139 24 2 25 79 
119 80 148 59 35 14 118 48 42 168 
43 8 63 28 82 92 29 135 88 152 
67 169 26 4 17 6 65 147 100 74 
134 50 91 76 125 23 107 122 156 133 
13 60 51 78 84 127 10 161 37 16 
159 77 113 164 72 55 41 61 3 54 
33 39 141 171 131 128 83 99 45 70 
120 145 47 96 151 153 104 86 170 5 
46 64 158 103 143 87 89 102 32 94 
49 9 106 163 
